1647257340
1647268200
1647268200
1647269100
1647343500
1647360240
1647429900
1647434700
1647516480
1647527400
1647602400
1647612000
1647948300
1647867300
1647877800
1647862200
1647867360
1647963000
1648035000
1648053300
1648121400
1648137600
1648137600
1648139400
1648207800
1648216800
1648463400
1648478700
1648549500
1648557900
1648636200
1648656000
1648722000
1648739400
